n_res = 4;
rcap = [13, 13, 82, 77];
rtype = [1, 1, 2, 2];
n_tasks = 16;
modes = [ {1}, {2}, {3}, {4}, {5}, {6}, {7}, {8}, {9}, {10}, {11}, {12}, {13}, {14}, {15}, {16} ];
succ = [ {5, 9, 10}, {5, 6, 13}, {4, 9}, {10, 13, 15}, {7, 8}, {8}, {11}, {11, 12, 14}, {11, 13, 14}, {14}, {15, 16}, {15, 16}, {16}, {}, {}, {} ];
n_opt = 16;
dur = [9, 10, 7, 7, 6, 10, 5, 3, 3, 3, 10, 1, 8, 7, 4, 2];
rreq = [|  0,  0, 10,  0,  4,  9,  0,  0,  3,  0,  0,  5,  0,  2,  0,  8
        |  7,  8,  0,  3,  0,  0,  1,  7,  0,  8,  7,  0,  3,  0,  5,  0
        |  6,  6,  2,  3,  5,  1,  9,  9,  4,  3,  9,  3,  8, 10,  2,  2
        |  6,  5,  3,  6,  1,  8,  5,  6,  4,  8,  4,  4,  4,  4,  2,  7 |];
